33D32945 STP File, STP Format Version 1.0

SECTION Comments
Name "cube_n13_d2_s17"
Problem "Euclidean Steiner Tree Problem"
Remark "Generated with STPGenerator. 2 dimensions."
END

SECTION Graph
Nodes 13
END

SECTION Coordinates
DD 0 0.5717940003 0.0018524737
DD 1 0.1227083798 0.9171544332
DD 2 0.8540148287 0.2275495600
DD 3 0.1078885724 0.4860870128
DD 4 0.6620165676 0.9043156765
DD 5 0.6258278161 0.2151280480
DD 6 0.2804932088 0.3381360212
DD 7 0.8132569412 0.7641613385
DD 8 0.5371329414 0.4402770090
DD 9 0.7264149760 0.6913943327
DD 10 0.1680129702 0.6031280205
DD 11 0.3763264294 0.7351060159
DD 12 0.8217135835 0.0627080598
END
